c defined variables: 33 34 35 36 37 38 39 40 41 42 43 44 45 46 47 48 49 50 51 52 53 54 55 56 57 58 59 60 61 62 63 64 65 66 67 68 69 70 71 72 73 74 75 76 77 78 79 80 81 82 83 84 85 86 87 88 89 90 91 92 93 94 95 96 97 98 99 100 101 102 103 104 105 106 107 108 109 110 111 112 113 114 115 116 117 118 119 120 121 122 123 124 125 126 127 128 129 130 131 132 133 134 135 136 137 138 139 140 141 142 143 144 145 146 147 148 149 150 151 152 153 154 155 156 157 158 159 160 161 162 163 164 165 166 167 190 193 194 195 196 197 198 199 200 201 202 203 204 205 206 207 208 209 210 211 212 213 214 215 216 217 218 219 220 221 222 223 224 225 226 227 228 229 230 231 232 233 234 235 236 237 238 239 240 241 242 243 244 245 246 247 248 249 250 251 252 253 254 255 256 257 258 259 260 261 262 263 264 265 266 267 268 269 270 271 272 273 274 275 276 277 278 279 280 281 282 283 284 285 286 287 288 289 290 291 292 294 295 296 297 298 299 300 301 302 303 304 305 306 307 308 
p cnf 1366 2067
a 1 2 3 4 5 6 7 8 9 10 11 12 13 14 15 16 17 18 19 20 21 22 23 24 25 26 27 28 29 30 31 32 174 175 176 177 178 179 180 181 182 183 184 185 186 187 0
e 33 34 35 36 37 38 39 40 41 42 43 44 45 46 47 48 49 50 51 52 53 54 55 56 57 58 59 60 61 62 63 64 65 66 67 68 69 70 71 72 73 74 75 76 77 78 79 80 81 82 83 84 85 86 87 88 89 90 91 92 93 94 95 96 97 98 99 100 101 102 103 104 105 106 107 108 109 110 111 112 113 114 115 116 117 118 119 120 121 122 123 124 125 126 127 128 129 130 131 132 133 134 135 136 137 138 139 140 141 142 143 144 145 146 147 148 149 150 151 152 153 154 155 156 157 158 159 160 161 162 163 164 165 166 167 190 193 194 195 196 197 198 199 200 201 202 203 204 205 206 207 208 209 210 211 212 213 214 215 216 217 218 219 220 221 222 223 224 225 226 227 228 229 230 231 232 233 234 235 236 237 238 239 240 241 242 243 244 245 246 247 248 249 250 251 252 253 254 255 256 257 258 259 260 261 262 263 264 265 266 267 268 269 270 271 272 273 274 275 276 277 278 279 280 281 282 283 284 285 286 287 288 289 290 291 292 294 295 296 297 298 299 300 301 302 303 304 305 306 307 308 1113 1114 1115 1116 1117 1118 1119 1120 1121 1122 1123 1124 1125 1126 1127 1128 1129 1130 1131 1132 1133 1134 1135 1136 1137 1138 1139 1140 1141 1142 1143 1144 1145 1146 1147 1148 1149 1150 1151 1152 1153 1154 1155 1156 1157 1158 1159 1160 1161 1162 1163 1164 1165 1166 1167 1168 1169 1170 1171 1172 1173 1174 1175 1176 1177 1178 1179 1180 1181 1182 1183 1184 1185 1186 1187 1188 1189 1190 1191 1192 1193 1194 1195 1196 1197 1198 1199 1200 1201 1202 1203 1204 1205 1206 1207 1208 1209 1210 1211 1212 1213 1214 1215 1216 1217 1218 1219 1220 1221 1222 1223 1224 1225 1226 1227 1228 1229 1230 1231 1232 1233 1234 1235 1236 1237 1238 1239 1240 1241 1242 1243 1244 1245 1246 1247 1248 1249 1250 1251 1252 1253 1254 1255 1256 1257 1258 1259 1260 1261 1262 1263 1264 1265 1266 1267 1268 1269 1270 1271 1272 1273 1274 1275 1276 1277 1278 1279 1280 1281 1282 1283 1284 1285 1286 1287 1288 1289 1290 1291 1292 1293 1294 1295 1296 1297 1298 1299 1300 1301 1302 1303 1304 1305 1306 1307 1308 1309 1310 1311 1312 1313 1314 1315 1316 1317 1318 1319 1320 1321 1322 1323 1324 1325 1326 1327 1328 1329 1330 1331 1332 1333 1334 1335 1336 1337 1338 1339 1340 1341 1342 1343 1344 1345 1346 1347 1348 1349 1350 1351 1352 1353 1354 1355 1356 1357 1358 1359 1360 1361 1362 1363 1364 1365 1366 0
d 172 174 175 176 177 178 179 180 0
d 171 181 182 0
d 170 183 184 0
d 169 185 186 0
d 173 174 175 176 177 178 179 180 187 0
d 168 185 186 183 184 181 182 174 175 176 177 178 179 180 187 0
d 188 1 2 3 4 5 6 7 8 9 10 11 12 13 14 15 16 17 18 19 20 21 22 23 24 25 26 27 28 29 30 31 32 174 175 176 177 178 179 180 181 182 183 184 185 186 187 0
d 189 1 2 3 4 5 6 7 8 9 10 11 12 13 14 15 16 17 18 19 20 21 22 23 24 25 26 27 28 29 30 31 32 174 175 176 177 178 179 180 181 182 183 184 185 186 187 0
d 191 1 2 3 4 5 6 7 8 9 10 11 12 13 14 15 16 17 18 19 20 21 22 23 24 25 26 27 28 29 30 31 32 174 175 176 177 178 179 180 181 182 183 184 185 186 187 0
d 192 1 2 3 4 5 6 7 8 9 10 11 12 13 14 15 16 17 18 19 20 21 22 23 24 25 26 27 28 29 30 31 32 174 175 176 177 178 179 180 181 182 183 184 185 186 187 0
d 293 1 2 3 4 5 6 7 8 9 10 11 12 13 14 15 16 17 18 19 20 21 22 23 24 25 26 27 28 29 30 31 32 174 175 176 177 178 179 180 181 182 183 184 185 186 187 0
1113 -33 0
-1113 33 0
1114 -34 0
-1114 34 0
-1115 -35 0
1115 35 0
1116 -36 0
-1116 36 0
1117 -37 0
-1117 37 0
-1118 -38 0
1118 38 0
1119 -39 0
-1119 39 0
1120 -40 0
-1120 40 0
-1121 -41 0
1121 41 0
-12 -42 0
12 42 0
-1122 -43 0
1122 43 0
-11 -44 0
11 44 0
-1123 -45 0
1123 45 0
-10 -46 0
10 46 0
-1124 -47 0
1124 47 0
-9 -48 0
9 48 0
-1125 -49 0
1125 49 0
-49 -50 0
49 50 0
1126 -51 0
-1126 51 0
1128 -52 0
-1128 52 0
1130 -53 0
-1130 53 0
-1133 -54 0
1133 54 0
1134 -55 0
-1134 55 0
1135 -56 0
-1135 56 0
-1136 -57 0
1136 57 0
1137 -58 0
-1137 58 0
1138 -59 0
-1138 59 0
1139 -60 0
-1139 60 0
1140 -61 0
-1140 61 0
-1141 -62 0
1141 62 0
1142 -63 0
-1142 63 0
1143 -64 0
-1143 64 0
-1144 -65 0
1144 65 0
1145 -66 0
-1145 66 0
1146 -67 0
-1146 67 0
-1147 -68 0
1147 68 0
1148 -69 0
-1148 69 0
1149 -70 0
-1149 70 0
-1150 -71 0
1150 71 0
-8 -72 0
8 72 0
-1151 -73 0
1151 73 0
-7 -74 0
7 74 0
-1152 -75 0
1152 75 0
-6 -76 0
6 76 0
-1153 -77 0
1153 77 0
-5 -78 0
5 78 0
-1154 -79 0
1154 79 0
-79 -80 0
79 80 0
1155 -81 0
-1155 81 0
1157 -82 0
-1157 82 0
1159 -83 0
-1159 83 0
-1162 -84 0
1162 84 0
1163 -85 0
-1163 85 0
1164 -86 0
-1164 86 0
-1165 -87 0
1165 87 0
1166 -88 0
-1166 88 0
1167 -89 0
-1167 89 0
1168 -90 0
-1168 90 0
1169 -91 0
-1169 91 0
-1170 -92 0
1170 92 0
1171 -93 0
-1171 93 0
1172 -94 0
-1172 94 0
-1173 -95 0
1173 95 0
1174 -96 0
-1174 96 0
1175 -97 0
-1175 97 0
-1176 -98 0
1176 98 0
1177 -99 0
-1177 99 0
1178 -100 0
-1178 100 0
-1179 -101 0
1179 101 0
-4 -102 0
4 102 0
-1180 -103 0
1180 103 0
-3 -104 0
3 104 0
-1181 -105 0
1181 105 0
-2 -106 0
2 106 0
-1182 -107 0
1182 107 0
-1 -108 0
1 108 0
-1183 -109 0
1183 109 0
-109 -110 0
109 110 0
1184 -111 0
-1184 111 0
1186 -112 0
-1186 112 0
1188 -113 0
-1188 113 0
-1191 -114 0
1191 114 0
1192 -115 0
-1192 115 0
1193 -116 0
-1193 116 0
-1194 -117 0
1194 117 0
1195 -118 0
-1195 118 0
1196 -119 0
-1196 119 0
1197 -120 0
-1197 120 0
1198 -121 0
-1198 121 0
-1199 -122 0
1199 122 0
1200 -123 0
-1200 123 0
1201 -124 0
-1201 124 0
-1202 -125 0
1202 125 0
1203 -126 0
-1203 126 0
1204 -127 0
-1204 127 0
-1205 -128 0
1205 128 0
1206 -129 0
-1206 129 0
1207 -130 0
-1207 130 0
-1208 -131 0
1208 131 0
-16 -132 0
16 132 0
-1209 -133 0
1209 133 0
-15 -134 0
15 134 0
-1210 -135 0
1210 135 0
-14 -136 0
14 136 0
-1211 -137 0
1211 137 0
-13 -138 0
13 138 0
-1212 -139 0
1212 139 0
-139 -140 0
139 140 0
1213 -141 0
-1213 141 0
1215 -142 0
-1215 142 0
1217 -143 0
-1217 143 0
-1220 -144 0
1220 144 0
1221 -145 0
-1221 145 0
1222 -146 0
-1222 146 0
-1223 -147 0
1223 147 0
1224 -148 0
-1224 148 0
1225 -149 0
-1225 149 0
-144 -150 0
144 150 0
-1226 -151 0
1226 151 0
-54 -152 0
54 152 0
-1227 -153 0
1227 153 0
-84 -154 0
84 154 0
-1228 -155 0
1228 155 0
-114 -156 0
114 156 0
-1229 -157 0
1229 157 0
-157 -158 0
157 158 0
1230 -159 0
-1230 159 0
1232 -160 0
-1232 160 0
1234 -161 0
-1234 161 0
-1237 -162 0
1237 162 0
1238 -163 0
-1238 163 0
1239 -164 0
-1239 164 0
-1240 -165 0
1240 165 0
1241 -166 0
-1241 166 0
1242 -167 0
-1242 167 0
-1243 -190 0
1243 190 0
1200 -193 0
-1200 193 0
1201 -194 0
-1201 194 0
-1244 -195 0
1244 195 0
1203 -196 0
-1203 196 0
1204 -197 0
-1204 197 0
-1245 -198 0
1245 198 0
1206 -199 0
-1206 199 0
-1246 -200 0
1246 200 0
-16 -201 0
16 201 0
-1247 -202 0
1247 202 0
-15 -203 0
15 203 0
-1248 -204 0
1248 204 0
-14 -205 0
14 205 0
-1249 -206 0
1249 206 0
-13 -207 0
13 207 0
-1250 -208 0
1250 208 0
1171 -209 0
-1171 209 0
1172 -210 0
-1172 210 0
-1251 -211 0
1251 211 0
1174 -212 0
-1174 212 0
1175 -213 0
-1175 213 0
-1252 -214 0
1252 214 0
1177 -215 0
-1177 215 0
1178 -216 0
-1178 216 0
-1253 -217 0
1253 217 0
-4 -218 0
4 218 0
-1254 -219 0
1254 219 0
-3 -220 0
3 220 0
-1255 -221 0
1255 221 0
-2 -222 0
2 222 0
-1256 -223 0
1256 223 0
-1 -224 0
1 224 0
-1257 -225 0
1257 225 0
-225 -226 0
225 226 0
1258 -227 0
-1258 227 0
1260 -228 0
-1260 228 0
1262 -229 0
-1262 229 0
-1265 -230 0
1265 230 0
1192 -231 0
-1192 231 0
1193 -232 0
-1193 232 0
-1266 -233 0
1266 233 0
1267 -234 0
-1267 234 0
1142 -235 0
-1142 235 0
1143 -236 0
-1143 236 0
-1268 -237 0
1268 237 0
1145 -238 0
-1145 238 0
1146 -239 0
-1146 239 0
-1269 -240 0
1269 240 0
1148 -241 0
-1148 241 0
1149 -242 0
-1149 242 0
-1270 -243 0
1270 243 0
-8 -244 0
8 244 0
-1271 -245 0
1271 245 0
-7 -246 0
7 246 0
-1272 -247 0
1272 247 0
-6 -248 0
6 248 0
-1273 -249 0
1273 249 0
-5 -250 0
5 250 0
-1274 -251 0
1274 251 0
-251 -252 0
251 252 0
1275 -253 0
-1275 253 0
1277 -254 0
-1277 254 0
1279 -255 0
-1279 255 0
-1282 -256 0
1282 256 0
1163 -257 0
-1163 257 0
1164 -258 0
-1164 258 0
-1283 -259 0
1283 259 0
1284 -260 0
-1284 260 0
1113 -261 0
-1113 261 0
1114 -262 0
-1114 262 0
-1285 -263 0
1285 263 0
1116 -264 0
-1116 264 0
1117 -265 0
-1117 265 0
-1286 -266 0
1286 266 0
1119 -267 0
-1119 267 0
1120 -268 0
-1120 268 0
-1287 -269 0
1287 269 0
-12 -270 0
12 270 0
-1288 -271 0
1288 271 0
-11 -272 0
11 272 0
-1289 -273 0
1289 273 0
-10 -274 0
10 274 0
-1290 -275 0
1290 275 0
-9 -276 0
9 276 0
-1291 -277 0
1291 277 0
-277 -278 0
277 278 0
1292 -279 0
-1292 279 0
1294 -280 0
-1294 280 0
1296 -281 0
-1296 281 0
-1299 -282 0
1299 282 0
1134 -283 0
-1134 283 0
1135 -284 0
-1135 284 0
-1300 -285 0
1300 285 0
1301 -286 0
-1301 286 0
1221 -287 0
-1221 287 0
1222 -288 0
-1222 288 0
-1302 -289 0
1302 289 0
1305 -290 0
-1305 290 0
1308 -291 0
-1308 291 0
1311 -292 0
-1311 292 0
1313 -294 0
-1313 294 0
1321 -295 0
-1321 295 0
1329 -296 0
-1329 296 0
1332 -297 0
-1332 297 0
1335 -298 0
-1335 298 0
-1339 -299 0
1339 299 0
-1342 -300 0
1342 300 0
1345 -301 0
-1345 301 0
1348 -302 0
-1348 302 0
1351 -303 0
-1351 303 0
1354 -304 0
-1354 304 0
1357 -305 0
-1357 305 0
1360 -306 0
-1360 306 0
1363 -307 0
-1363 307 0
1366 -308 0
-1366 308 0
-33 -11 0
-33 27 0
11 -27 33 0
-34 11 0
-34 -27 0
-11 27 34 0
-33 35 0
-34 35 0
-35 33 34 0
-36 -10 0
-36 26 0
10 -26 36 0
-37 10 0
-37 -26 0
-10 26 37 0
-36 38 0
-37 38 0
-38 36 37 0
-39 -9 0
-39 25 0
9 -25 39 0
-40 9 0
-40 -25 0
-9 25 40 0
-39 41 0
-40 41 0
-41 39 40 0
-12 -42 0
12 42 0
-42 43 0
-28 43 0
-43 42 28 0
-11 -44 0
11 44 0
-44 45 0
-27 45 0
-45 44 27 0
-10 -46 0
10 46 0
-46 47 0
-26 47 0
-47 46 26 0
-9 -48 0
9 48 0
-48 49 0
-25 49 0
-49 48 25 0
-49 -50 0
49 50 0
-51 -41 0
-51 -47 0
41 47 51 0
-52 -38 0
-52 -41 0
-52 -45 0
38 41 45 52 0
-53 -35 0
-53 -38 0
-53 -41 0
-53 -43 0
35 38 41 43 53 0
-50 54 0
-51 54 0
-52 54 0
-53 54 0
-54 50 51 52 53 0
-55 -12 0
-55 28 0
12 -28 55 0
-56 12 0
-56 -28 0
-12 28 56 0
-55 57 0
-56 57 0
-57 55 56 0
-58 -57 0
-58 -35 0
-58 -38 0
-58 -41 0
57 35 38 41 58 0
-59 -54 0
-59 -58 0
54 58 59 0
-60 -54 0
-60 59 0
54 -59 60 0
-61 54 0
-61 -59 0
-54 59 61 0
-60 62 0
-61 62 0
-62 60 61 0
-63 -7 0
-63 23 0
7 -23 63 0
-64 7 0
-64 -23 0
-7 23 64 0
-63 65 0
-64 65 0
-65 63 64 0
-66 -6 0
-66 22 0
6 -22 66 0
-67 6 0
-67 -22 0
-6 22 67 0
-66 68 0
-67 68 0
-68 66 67 0
-69 -5 0
-69 21 0
5 -21 69 0
-70 5 0
-70 -21 0
-5 21 70 0
-69 71 0
-70 71 0
-71 69 70 0
-8 -72 0
8 72 0
-72 73 0
-24 73 0
-73 72 24 0
-7 -74 0
7 74 0
-74 75 0
-23 75 0
-75 74 23 0
-6 -76 0
6 76 0
-76 77 0
-22 77 0
-77 76 22 0
-5 -78 0
5 78 0
-78 79 0
-21 79 0
-79 78 21 0
-79 -80 0
79 80 0
-81 -71 0
-81 -77 0
71 77 81 0
-82 -68 0
-82 -71 0
-82 -75 0
68 71 75 82 0
-83 -65 0
-83 -68 0
-83 -71 0
-83 -73 0
65 68 71 73 83 0
-80 84 0
-81 84 0
-82 84 0
-83 84 0
-84 80 81 82 83 0
-85 -8 0
-85 24 0
8 -24 85 0
-86 8 0
-86 -24 0
-8 24 86 0
-85 87 0
-86 87 0
-87 85 86 0
-88 -87 0
-88 -65 0
-88 -68 0
-88 -71 0
87 65 68 71 88 0
-89 -84 0
-89 -88 0
84 88 89 0
-90 -84 0
-90 89 0
84 -89 90 0
-91 84 0
-91 -89 0
-84 89 91 0
-90 92 0
-91 92 0
-92 90 91 0
-93 -3 0
-93 19 0
3 -19 93 0
-94 3 0
-94 -19 0
-3 19 94 0
-93 95 0
-94 95 0
-95 93 94 0
-96 -2 0
-96 18 0
2 -18 96 0
-97 2 0
-97 -18 0
-2 18 97 0
-96 98 0
-97 98 0
-98 96 97 0
-99 -1 0
-99 17 0
1 -17 99 0
-100 1 0
-100 -17 0
-1 17 100 0
-99 101 0
-100 101 0
-101 99 100 0
-4 -102 0
4 102 0
-102 103 0
-20 103 0
-103 102 20 0
-3 -104 0
3 104 0
-104 105 0
-19 105 0
-105 104 19 0
-2 -106 0
2 106 0
-106 107 0
-18 107 0
-107 106 18 0
-1 -108 0
1 108 0
-108 109 0
-17 109 0
-109 108 17 0
-109 -110 0
109 110 0
-111 -101 0
-111 -107 0
101 107 111 0
-112 -98 0
-112 -101 0
-112 -105 0
98 101 105 112 0
-113 -95 0
-113 -98 0
-113 -101 0
-113 -103 0
95 98 101 103 113 0
-110 114 0
-111 114 0
-112 114 0
-113 114 0
-114 110 111 112 113 0
-115 -4 0
-115 20 0
4 -20 115 0
-116 4 0
-116 -20 0
-4 20 116 0
-115 117 0
-116 117 0
-117 115 116 0
-118 -117 0
-118 -95 0
-118 -98 0
-118 -101 0
117 95 98 101 118 0
-119 -114 0
-119 -118 0
114 118 119 0
-120 -114 0
-120 119 0
114 -119 120 0
-121 114 0
-121 -119 0
-114 119 121 0
-120 122 0
-121 122 0
-122 120 121 0
-123 -15 0
-123 31 0
15 -31 123 0
-124 15 0
-124 -31 0
-15 31 124 0
-123 125 0
-124 125 0
-125 123 124 0
-126 -14 0
-126 30 0
14 -30 126 0
-127 14 0
-127 -30 0
-14 30 127 0
-126 128 0
-127 128 0
-128 126 127 0
-129 -13 0
-129 29 0
13 -29 129 0
-130 13 0
-130 -29 0
-13 29 130 0
-129 131 0
-130 131 0
-131 129 130 0
-16 -132 0
16 132 0
-132 133 0
-32 133 0
-133 132 32 0
-15 -134 0
15 134 0
-134 135 0
-31 135 0
-135 134 31 0
-14 -136 0
14 136 0
-136 137 0
-30 137 0
-137 136 30 0
-13 -138 0
13 138 0
-138 139 0
-29 139 0
-139 138 29 0
-139 -140 0
139 140 0
-141 -131 0
-141 -137 0
131 137 141 0
-142 -128 0
-142 -131 0
-142 -135 0
128 131 135 142 0
-143 -125 0
-143 -128 0
-143 -131 0
-143 -133 0
125 128 131 133 143 0
-140 144 0
-141 144 0
-142 144 0
-143 144 0
-144 140 141 142 143 0
-145 -16 0
-145 32 0
16 -32 145 0
-146 16 0
-146 -32 0
-16 32 146 0
-145 147 0
-146 147 0
-147 145 146 0
-148 -147 0
-148 -125 0
-148 -128 0
-148 -131 0
147 125 128 131 148 0
-149 -144 0
-149 -148 0
144 148 149 0
-144 -150 0
144 150 0
-150 151 0
-149 151 0
-151 150 149 0
-54 -152 0
54 152 0
-152 153 0
-59 153 0
-153 152 59 0
-84 -154 0
84 154 0
-154 155 0
-89 155 0
-155 154 89 0
-114 -156 0
114 156 0
-156 157 0
-119 157 0
-157 156 119 0
-157 -158 0
157 158 0
-159 -122 0
-159 -155 0
122 155 159 0
-160 -92 0
-160 -122 0
-160 -153 0
92 122 153 160 0
-161 -62 0
-161 -92 0
-161 -122 0
-161 -151 0
62 92 122 151 161 0
-158 162 0
-159 162 0
-160 162 0
-161 162 0
-162 158 159 160 161 0
-163 -144 0
-163 149 0
144 -149 163 0
-164 144 0
-164 -149 0
-144 149 164 0
-163 165 0
-164 165 0
-165 163 164 0
-166 -165 0
-166 -62 0
-166 -92 0
-166 -122 0
165 62 92 122 166 0
-167 -162 0
-167 -166 0
162 166 167 0
-188 -172 0
-188 173 0
172 -173 188 0
-189 172 0
-189 -173 0
-172 173 189 0
-188 190 0
-189 190 0
-190 188 189 0
-191 -190 0
-191 -169 0
-191 -170 0
-191 -171 0
190 169 170 171 191 0
-192 -168 0
-192 -191 0
168 191 192 0
-193 -15 0
-193 31 0
15 -31 193 0
-194 15 0
-194 -31 0
-15 31 194 0
-193 195 0
-194 195 0
-195 193 194 0
-196 -14 0
-196 30 0
14 -30 196 0
-197 14 0
-197 -30 0
-14 30 197 0
-196 198 0
-197 198 0
-198 196 197 0
-199 -13 0
-199 29 0
13 -29 199 0
-199 200 0
-13 200 0
-200 199 13 0
-16 -201 0
16 201 0
-201 202 0
-32 202 0
-202 201 32 0
-15 -203 0
15 203 0
-203 204 0
-31 204 0
-204 203 31 0
-14 -205 0
14 205 0
-205 206 0
-30 206 0
-206 205 30 0
-13 -207 0
13 207 0
-207 208 0
-29 208 0
-208 207 29 0
-209 -3 0
-209 19 0
3 -19 209 0
-210 3 0
-210 -19 0
-3 19 210 0
-209 211 0
-210 211 0
-211 209 210 0
-212 -2 0
-212 18 0
2 -18 212 0
-213 2 0
-213 -18 0
-2 18 213 0
-212 214 0
-213 214 0
-214 212 213 0
-215 -1 0
-215 17 0
1 -17 215 0
-216 1 0
-216 -17 0
-1 17 216 0
-215 217 0
-216 217 0
-217 215 216 0
-4 -218 0
4 218 0
-218 219 0
-20 219 0
-219 218 20 0
-3 -220 0
3 220 0
-220 221 0
-19 221 0
-221 220 19 0
-2 -222 0
2 222 0
-222 223 0
-18 223 0
-223 222 18 0
-1 -224 0
1 224 0
-224 225 0
-17 225 0
-225 224 17 0
-225 -226 0
225 226 0
-227 -217 0
-227 -223 0
217 223 227 0
-228 -214 0
-228 -217 0
-228 -221 0
214 217 221 228 0
-229 -211 0
-229 -214 0
-229 -217 0
-229 -219 0
211 214 217 219 229 0
-226 230 0
-227 230 0
-228 230 0
-229 230 0
-230 226 227 228 229 0
-231 -4 0
-231 20 0
4 -20 231 0
-232 4 0
-232 -20 0
-4 20 232 0
-231 233 0
-232 233 0
-233 231 232 0
-234 -233 0
-234 -211 0
-234 -214 0
-234 -217 0
233 211 214 217 234 0
-235 -7 0
-235 23 0
7 -23 235 0
-236 7 0
-236 -23 0
-7 23 236 0
-235 237 0
-236 237 0
-237 235 236 0
-238 -6 0
-238 22 0
6 -22 238 0
-239 6 0
-239 -22 0
-6 22 239 0
-238 240 0
-239 240 0
-240 238 239 0
-241 -5 0
-241 21 0
5 -21 241 0
-242 5 0
-242 -21 0
-5 21 242 0
-241 243 0
-242 243 0
-243 241 242 0
-8 -244 0
8 244 0
-244 245 0
-24 245 0
-245 244 24 0
-7 -246 0
7 246 0
-246 247 0
-23 247 0
-247 246 23 0
-6 -248 0
6 248 0
-248 249 0
-22 249 0
-249 248 22 0
-5 -250 0
5 250 0
-250 251 0
-21 251 0
-251 250 21 0
-251 -252 0
251 252 0
-253 -243 0
-253 -249 0
243 249 253 0
-254 -240 0
-254 -243 0
-254 -247 0
240 243 247 254 0
-255 -237 0
-255 -240 0
-255 -243 0
-255 -245 0
237 240 243 245 255 0
-252 256 0
-253 256 0
-254 256 0
-255 256 0
-256 252 253 254 255 0
-257 -8 0
-257 24 0
8 -24 257 0
-258 8 0
-258 -24 0
-8 24 258 0
-257 259 0
-258 259 0
-259 257 258 0
-260 -259 0
-260 -237 0
-260 -240 0
-260 -243 0
259 237 240 243 260 0
-261 -11 0
-261 27 0
11 -27 261 0
-262 11 0
-262 -27 0
-11 27 262 0
-261 263 0
-262 263 0
-263 261 262 0
-264 -10 0
-264 26 0
10 -26 264 0
-265 10 0
-265 -26 0
-10 26 265 0
-264 266 0
-265 266 0
-266 264 265 0
-267 -9 0
-267 25 0
9 -25 267 0
-268 9 0
-268 -25 0
-9 25 268 0
-267 269 0
-268 269 0
-269 267 268 0
-12 -270 0
12 270 0
-270 271 0
-28 271 0
-271 270 28 0
-11 -272 0
11 272 0
-272 273 0
-27 273 0
-273 272 27 0
-10 -274 0
10 274 0
-274 275 0
-26 275 0
-275 274 26 0
-9 -276 0
9 276 0
-276 277 0
-25 277 0
-277 276 25 0
-277 -278 0
277 278 0
-279 -269 0
-279 -275 0
269 275 279 0
-280 -266 0
-280 -269 0
-280 -273 0
266 269 273 280 0
-281 -263 0
-281 -266 0
-281 -269 0
-281 -271 0
263 266 269 271 281 0
-278 282 0
-279 282 0
-280 282 0
-281 282 0
-282 278 279 280 281 0
-283 -12 0
-283 28 0
12 -28 283 0
-284 12 0
-284 -28 0
-12 28 284 0
-283 285 0
-284 285 0
-285 283 284 0
-286 -285 0
-286 -263 0
-286 -266 0
-286 -269 0
285 263 266 269 286 0
-287 -16 0
-287 32 0
16 -32 287 0
-288 16 0
-288 -32 0
-16 32 288 0
-287 289 0
-288 289 0
-289 287 288 0
-290 -289 0
-290 -195 0
-290 -198 0
-290 -200 0
289 195 198 200 290 0
-291 -167 192 0
-291 167 -192 0
291 -167 -192 0
291 167 192 0
-292 -166 191 0
-292 166 -191 0
292 -166 -191 0
292 166 191 0
-293 -162 168 0
-293 162 -168 0
293 -162 -168 0
293 162 168 0
-291 -292 -293 294 0
-294 291 0
-294 292 0
-294 293 0
-195 -174 -295 0
-195 174 295 0
195 -174 295 0
195 174 -295 0
-198 -175 -296 0
-198 175 296 0
198 -175 296 0
198 175 -296 0
-200 -176 -297 0
-200 176 297 0
200 -176 297 0
200 176 -297 0
-202 -177 -298 0
-202 177 298 0
202 -177 298 0
202 177 -298 0
-204 -178 -299 0
-204 178 299 0
204 -178 299 0
204 178 -299 0
-206 -179 -300 0
-206 179 300 0
206 -179 300 0
206 179 -300 0
-208 -180 -301 0
-208 180 301 0
208 -180 301 0
208 180 -301 0
-230 -181 -302 0
-230 181 302 0
230 -181 302 0
230 181 -302 0
-234 -182 -303 0
-234 182 303 0
234 -182 303 0
234 182 -303 0
-256 -183 -304 0
-256 183 304 0
256 -183 304 0
256 183 -304 0
-260 -184 -305 0
-260 184 305 0
260 -184 305 0
260 184 -305 0
-282 -185 -306 0
-282 185 306 0
282 -185 306 0
282 185 -306 0
-286 -186 -307 0
-286 186 307 0
286 -186 307 0
286 186 -307 0
-290 -187 -308 0
-290 187 308 0
290 -187 308 0
290 187 -308 0
295 296 297 298 299 300 301 302 303 304 305 306 307 308 294 0
-11 -1113 0
27 -1113 0
11 -27 1113 0
11 -1114 0
-27 -1114 0
-11 27 1114 0
-33 -1115 0
-34 -1115 0
33 34 1115 0
-10 -1116 0
26 -1116 0
10 -26 1116 0
10 -1117 0
-26 -1117 0
-10 26 1117 0
-36 -1118 0
-37 -1118 0
36 37 1118 0
-9 -1119 0
25 -1119 0
9 -25 1119 0
9 -1120 0
-25 -1120 0
-9 25 1120 0
-39 -1121 0
-40 -1121 0
39 40 1121 0
-28 -1122 0
-42 -1122 0
28 42 1122 0
-27 -1123 0
-44 -1123 0
27 44 1123 0
-26 -1124 0
-46 -1124 0
26 46 1124 0
-25 -1125 0
-48 -1125 0
25 48 1125 0
-41 -1126 0
-47 -1126 0
41 47 1126 0
-38 -1127 0
-41 -1127 0
38 41 1127 0
-45 -1128 0
1127 -1128 0
45 -1127 1128 0
-35 -1129 0
1127 -1129 0
35 -1127 1129 0
-43 -1130 0
1129 -1130 0
43 -1129 1130 0
-50 -1131 0
-51 -1131 0
50 51 1131 0
-52 -1132 0
-53 -1132 0
52 53 1132 0
1131 -1133 0
1132 -1133 0
-1131 -1132 1133 0
-12 -1134 0
28 -1134 0
12 -28 1134 0
12 -1135 0
-28 -1135 0
-12 28 1135 0
-55 -1136 0
-56 -1136 0
55 56 1136 0
-57 -1137 0
1129 -1137 0
57 -1129 1137 0
-54 -1138 0
-58 -1138 0
54 58 1138 0
-54 -1139 0
59 -1139 0
54 -59 1139 0
54 -1140 0
-59 -1140 0
-54 59 1140 0
-60 -1141 0
-61 -1141 0
60 61 1141 0
-7 -1142 0
23 -1142 0
7 -23 1142 0
7 -1143 0
-23 -1143 0
-7 23 1143 0
-63 -1144 0
-64 -1144 0
63 64 1144 0
-6 -1145 0
22 -1145 0
6 -22 1145 0
6 -1146 0
-22 -1146 0
-6 22 1146 0
-66 -1147 0
-67 -1147 0
66 67 1147 0
-5 -1148 0
21 -1148 0
5 -21 1148 0
5 -1149 0
-21 -1149 0
-5 21 1149 0
-69 -1150 0
-70 -1150 0
69 70 1150 0
-24 -1151 0
-72 -1151 0
24 72 1151 0
-23 -1152 0
-74 -1152 0
23 74 1152 0
-22 -1153 0
-76 -1153 0
22 76 1153 0
-21 -1154 0
-78 -1154 0
21 78 1154 0
-71 -1155 0
-77 -1155 0
71 77 1155 0
-68 -1156 0
-71 -1156 0
68 71 1156 0
-75 -1157 0
1156 -1157 0
75 -1156 1157 0
-65 -1158 0
1156 -1158 0
65 -1156 1158 0
-73 -1159 0
1158 -1159 0
73 -1158 1159 0
-80 -1160 0
-81 -1160 0
80 81 1160 0
-82 -1161 0
-83 -1161 0
82 83 1161 0
1160 -1162 0
1161 -1162 0
-1160 -1161 1162 0
-8 -1163 0
24 -1163 0
8 -24 1163 0
8 -1164 0
-24 -1164 0
-8 24 1164 0
-85 -1165 0
-86 -1165 0
85 86 1165 0
-87 -1166 0
1158 -1166 0
87 -1158 1166 0
-84 -1167 0
-88 -1167 0
84 88 1167 0
-84 -1168 0
89 -1168 0
84 -89 1168 0
84 -1169 0
-89 -1169 0
-84 89 1169 0
-90 -1170 0
-91 -1170 0
90 91 1170 0
-3 -1171 0
19 -1171 0
3 -19 1171 0
3 -1172 0
-19 -1172 0
-3 19 1172 0
-93 -1173 0
-94 -1173 0
93 94 1173 0
-2 -1174 0
18 -1174 0
2 -18 1174 0
2 -1175 0
-18 -1175 0
-2 18 1175 0
-96 -1176 0
-97 -1176 0
96 97 1176 0
-1 -1177 0
17 -1177 0
1 -17 1177 0
1 -1178 0
-17 -1178 0
-1 17 1178 0
-99 -1179 0
-100 -1179 0
99 100 1179 0
-20 -1180 0
-102 -1180 0
20 102 1180 0
-19 -1181 0
-104 -1181 0
19 104 1181 0
-18 -1182 0
-106 -1182 0
18 106 1182 0
-17 -1183 0
-108 -1183 0
17 108 1183 0
-101 -1184 0
-107 -1184 0
101 107 1184 0
-98 -1185 0
-101 -1185 0
98 101 1185 0
-105 -1186 0
1185 -1186 0
105 -1185 1186 0
-95 -1187 0
1185 -1187 0
95 -1185 1187 0
-103 -1188 0
1187 -1188 0
103 -1187 1188 0
-110 -1189 0
-111 -1189 0
110 111 1189 0
-112 -1190 0
-113 -1190 0
112 113 1190 0
1189 -1191 0
1190 -1191 0
-1189 -1190 1191 0
-4 -1192 0
20 -1192 0
4 -20 1192 0
4 -1193 0
-20 -1193 0
-4 20 1193 0
-115 -1194 0
-116 -1194 0
115 116 1194 0
-117 -1195 0
1187 -1195 0
117 -1187 1195 0
-114 -1196 0
-118 -1196 0
114 118 1196 0
-114 -1197 0
119 -1197 0
114 -119 1197 0
114 -1198 0
-119 -1198 0
-114 119 1198 0
-120 -1199 0
-121 -1199 0
120 121 1199 0
-15 -1200 0
31 -1200 0
15 -31 1200 0
15 -1201 0
-31 -1201 0
-15 31 1201 0
-123 -1202 0
-124 -1202 0
123 124 1202 0
-14 -1203 0
30 -1203 0
14 -30 1203 0
14 -1204 0
-30 -1204 0
-14 30 1204 0
-126 -1205 0
-127 -1205 0
126 127 1205 0
-13 -1206 0
29 -1206 0
13 -29 1206 0
13 -1207 0
-29 -1207 0
-13 29 1207 0
-129 -1208 0
-130 -1208 0
129 130 1208 0
-32 -1209 0
-132 -1209 0
32 132 1209 0
-31 -1210 0
-134 -1210 0
31 134 1210 0
-30 -1211 0
-136 -1211 0
30 136 1211 0
-29 -1212 0
-138 -1212 0
29 138 1212 0
-131 -1213 0
-137 -1213 0
131 137 1213 0
-128 -1214 0
-131 -1214 0
128 131 1214 0
-135 -1215 0
1214 -1215 0
135 -1214 1215 0
-125 -1216 0
1214 -1216 0
125 -1214 1216 0
-133 -1217 0
1216 -1217 0
133 -1216 1217 0
-140 -1218 0
-141 -1218 0
140 141 1218 0
-142 -1219 0
-143 -1219 0
142 143 1219 0
1218 -1220 0
1219 -1220 0
-1218 -1219 1220 0
-16 -1221 0
32 -1221 0
16 -32 1221 0
16 -1222 0
-32 -1222 0
-16 32 1222 0
-145 -1223 0
-146 -1223 0
145 146 1223 0
-147 -1224 0
1216 -1224 0
147 -1216 1224 0
-144 -1225 0
-148 -1225 0
144 148 1225 0
-149 -1226 0
-150 -1226 0
149 150 1226 0
-59 -1227 0
-152 -1227 0
59 152 1227 0
-89 -1228 0
-154 -1228 0
89 154 1228 0
-119 -1229 0
-156 -1229 0
119 156 1229 0
-122 -1230 0
-155 -1230 0
122 155 1230 0
-92 -1231 0
-122 -1231 0
92 122 1231 0
-153 -1232 0
1231 -1232 0
153 -1231 1232 0
-62 -1233 0
1231 -1233 0
62 -1231 1233 0
-151 -1234 0
1233 -1234 0
151 -1233 1234 0
-158 -1235 0
-159 -1235 0
158 159 1235 0
-160 -1236 0
-161 -1236 0
160 161 1236 0
1235 -1237 0
1236 -1237 0
-1235 -1236 1237 0
-144 -1238 0
149 -1238 0
144 -149 1238 0
144 -1239 0
-149 -1239 0
-144 149 1239 0
-163 -1240 0
-164 -1240 0
163 164 1240 0
-165 -1241 0
1233 -1241 0
165 -1233 1241 0
-162 -1242 0
-166 -1242 0
162 166 1242 0
-188 -1243 0
-189 -1243 0
188 189 1243 0
-193 -1244 0
-194 -1244 0
193 194 1244 0
-196 -1245 0
-197 -1245 0
196 197 1245 0
-13 -1246 0
-199 -1246 0
13 199 1246 0
-32 -1247 0
-201 -1247 0
32 201 1247 0
-31 -1248 0
-203 -1248 0
31 203 1248 0
-30 -1249 0
-205 -1249 0
30 205 1249 0
-29 -1250 0
-207 -1250 0
29 207 1250 0
-209 -1251 0
-210 -1251 0
209 210 1251 0
-212 -1252 0
-213 -1252 0
212 213 1252 0
-215 -1253 0
-216 -1253 0
215 216 1253 0
-20 -1254 0
-218 -1254 0
20 218 1254 0
-19 -1255 0
-220 -1255 0
19 220 1255 0
-18 -1256 0
-222 -1256 0
18 222 1256 0
-17 -1257 0
-224 -1257 0
17 224 1257 0
-217 -1258 0
-223 -1258 0
217 223 1258 0
-214 -1259 0
-217 -1259 0
214 217 1259 0
-221 -1260 0
1259 -1260 0
221 -1259 1260 0
-211 -1261 0
1259 -1261 0
211 -1259 1261 0
-219 -1262 0
1261 -1262 0
219 -1261 1262 0
-226 -1263 0
-227 -1263 0
226 227 1263 0
-228 -1264 0
-229 -1264 0
228 229 1264 0
1263 -1265 0
1264 -1265 0
-1263 -1264 1265 0
-231 -1266 0
-232 -1266 0
231 232 1266 0
-233 -1267 0
1261 -1267 0
233 -1261 1267 0
-235 -1268 0
-236 -1268 0
235 236 1268 0
-238 -1269 0
-239 -1269 0
238 239 1269 0
-241 -1270 0
-242 -1270 0
241 242 1270 0
-24 -1271 0
-244 -1271 0
24 244 1271 0
-23 -1272 0
-246 -1272 0
23 246 1272 0
-22 -1273 0
-248 -1273 0
22 248 1273 0
-21 -1274 0
-250 -1274 0
21 250 1274 0
-243 -1275 0
-249 -1275 0
243 249 1275 0
-240 -1276 0
-243 -1276 0
240 243 1276 0
-247 -1277 0
1276 -1277 0
247 -1276 1277 0
-237 -1278 0
1276 -1278 0
237 -1276 1278 0
-245 -1279 0
1278 -1279 0
245 -1278 1279 0
-252 -1280 0
-253 -1280 0
252 253 1280 0
-254 -1281 0
-255 -1281 0
254 255 1281 0
1280 -1282 0
1281 -1282 0
-1280 -1281 1282 0
-257 -1283 0
-258 -1283 0
257 258 1283 0
-259 -1284 0
1278 -1284 0
259 -1278 1284 0
-261 -1285 0
-262 -1285 0
261 262 1285 0
-264 -1286 0
-265 -1286 0
264 265 1286 0
-267 -1287 0
-268 -1287 0
267 268 1287 0
-28 -1288 0
-270 -1288 0
28 270 1288 0
-27 -1289 0
-272 -1289 0
27 272 1289 0
-26 -1290 0
-274 -1290 0
26 274 1290 0
-25 -1291 0
-276 -1291 0
25 276 1291 0
-269 -1292 0
-275 -1292 0
269 275 1292 0
-266 -1293 0
-269 -1293 0
266 269 1293 0
-273 -1294 0
1293 -1294 0
273 -1293 1294 0
-263 -1295 0
1293 -1295 0
263 -1293 1295 0
-271 -1296 0
1295 -1296 0
271 -1295 1296 0
-278 -1297 0
-279 -1297 0
278 279 1297 0
-280 -1298 0
-281 -1298 0
280 281 1298 0
1297 -1299 0
1298 -1299 0
-1297 -1298 1299 0
-283 -1300 0
-284 -1300 0
283 284 1300 0
-285 -1301 0
1295 -1301 0
285 -1295 1301 0
-287 -1302 0
-288 -1302 0
287 288 1302 0
-195 -1303 0
-198 -1303 0
195 198 1303 0
-200 -1304 0
-289 -1304 0
200 289 1304 0
1303 -1305 0
1304 -1305 0
-1303 -1304 1305 0
167 -1306 0
-192 -1306 0
-167 192 1306 0
-167 -1307 0
192 -1307 0
167 -192 1307 0
-1306 -1308 0
-1307 -1308 0
1306 1307 1308 0
166 -1309 0
-191 -1309 0
-166 191 1309 0
-166 -1310 0
191 -1310 0
166 -191 1310 0
-1309 -1311 0
-1310 -1311 0
1309 1310 1311 0
291 -1312 0
292 -1312 0
-291 -292 1312 0
293 -1313 0
1312 -1313 0
-293 -1312 1313 0
-174 -1314 0
195 -1314 0
174 -195 1314 0
31 -1315 0
123 -1315 0
-31 -123 1315 0
-1201 -1316 0
-1315 -1316 0
1201 1315 1316 0
-1314 -1317 0
-1316 -1317 0
1314 1316 1317 0
174 -1318 0
-195 -1318 0
-174 195 1318 0
-1200 -1319 0
-1201 -1319 0
1200 1201 1319 0
-1318 -1320 0
1319 -1320 0
1318 -1319 1320 0
-1317 -1321 0
-1320 -1321 0
1317 1320 1321 0
-196 -1322 0
-1204 -1322 0
196 1204 1322 0
-30 -1323 0
196 -1323 0
30 -196 1323 0
-175 -1324 0
198 -1324 0
175 -198 1324 0
-1323 -1325 0
1324 -1325 0
1323 -1324 1325 0
-1322 -1326 0
-1325 -1326 0
1322 1325 1326 0
175 -1327 0
-198 -1327 0
-175 198 1327 0
1322 -1328 0
-1327 -1328 0
-1322 1327 1328 0
-1326 -1329 0
-1328 -1329 0
1326 1328 1329 0
-176 -1330 0
-200 -1330 0
176 200 1330 0
176 -1331 0
200 -1331 0
-176 -200 1331 0
-1330 -1332 0
-1331 -1332 0
1330 1331 1332 0
-177 -1333 0
-202 -1333 0
177 202 1333 0
177 -1334 0
202 -1334 0
-177 -202 1334 0
-1333 -1335 0
-1334 -1335 0
1333 1334 1335 0
-31 -1336 0
178 -1336 0
31 -178 1336 0
-204 -1337 0
1336 -1337 0
204 -1336 1337 0
-178 -1338 0
204 -1338 0
178 -204 1338 0
-1337 -1339 0
-1338 -1339 0
1337 1338 1339 0
-179 -1340 0
-1204 -1340 0
179 1204 1340 0
179 -1341 0
1204 -1341 0
-179 -1204 1341 0
-1340 -1342 0
-1341 -1342 0
1340 1341 1342 0
-180 -1343 0
-208 -1343 0
180 208 1343 0
180 -1344 0
208 -1344 0
-180 -208 1344 0
-1343 -1345 0
-1344 -1345 0
1343 1344 1345 0
-181 -1346 0
-230 -1346 0
181 230 1346 0
181 -1347 0
230 -1347 0
-181 -230 1347 0
-1346 -1348 0
-1347 -1348 0
1346 1347 1348 0
-182 -1349 0
-234 -1349 0
182 234 1349 0
182 -1350 0
234 -1350 0
-182 -234 1350 0
-1349 -1351 0
-1350 -1351 0
1349 1350 1351 0
-183 -1352 0
-256 -1352 0
183 256 1352 0
183 -1353 0
256 -1353 0
-183 -256 1353 0
-1352 -1354 0
-1353 -1354 0
1352 1353 1354 0
-184 -1355 0
-260 -1355 0
184 260 1355 0
184 -1356 0
260 -1356 0
-184 -260 1356 0
-1355 -1357 0
-1356 -1357 0
1355 1356 1357 0
-185 -1358 0
-282 -1358 0
185 282 1358 0
185 -1359 0
282 -1359 0
-185 -282 1359 0
-1358 -1360 0
-1359 -1360 0
1358 1359 1360 0
-186 -1361 0
-286 -1361 0
186 286 1361 0
186 -1362 0
286 -1362 0
-186 -286 1362 0
-1361 -1363 0
-1362 -1363 0
1361 1362 1363 0
-187 -1364 0
-290 -1364 0
187 290 1364 0
187 -1365 0
290 -1365 0
-187 -290 1365 0
-1364 -1366 0
-1365 -1366 0
1364 1365 1366 0
